p cnf 146 487
-2 3 0
2 3 0
4 1 0
4 3 0
-1 -3 -4 0
-6 4 0
-6 -5 0
-4 5 6 0
8 2 0
8 -7 0
-2 7 -8 0
-10 9 0
-10 -3 0
-9 3 10 0
13 -1 0
13 12 0
1 -12 -13 0
-14 11 0
-14 -13 0
-11 13 14 0
-15 10 0
-15 -14 0
-10 14 15 0
-17 -1 0
-17 -16 0
1 16 17 0
18 -15 0
18 -17 0
15 17 -18 0
19 8 0
19 18 0
-8 -18 -19 0
-20 -19 0
-20 -12 0
19 12 20 0
-21 -6 0
-21 -20 0
6 20 21 0
23 -7 0
23 22 0
7 -22 -23 0
8 -23 -24 0
-8 23 -24 0
8 23 24 0
-8 -23 24 0
21 -24 -25 0
-21 24 -25 0
21 24 25 0
-21 -24 25 0
-26 -1 0
-26 13 0
1 -13 26 0
25 -26 -27 0
-25 26 -27 0
25 26 27 0
-25 -26 27 0
-20 -28 -29 0
20 28 -29 0
-20 28 29 0
20 -28 29 0
30 9 -31 0
-30 -9 -31 0
30 -9 31 0
-30 9 31 0
32 31 0
32 12 0
-31 -12 -32 0
-33 -11 0
-33 32 0
11 -32 33 0
-34 18 0
-34 -33 0
-18 33 34 0
34 -8 -35 0
-34 8 -35 0
34 8 35 0
-34 -8 35 0
36 29 0
36 35 0
-29 -35 -36 0
-37 -27 0
-37 36 0
27 -36 37 0
-38 -16 0
-38 1 0
16 -1 38 0
-12 39 -40 0
12 -39 -40 0
-12 -39 40 0
12 39 40 0
-41 38 0
-41 -40 0
-38 40 41 0
-42 37 0
-42 -41 0
-37 41 42 0
30 -10 -43 0
-30 10 -43 0
30 10 43 0
-30 -10 43 0
44 42 0
44 -43 0
-42 43 -44 0
46 23 0
46 45 0
-23 -45 -46 0
47 45 0
47 46 0
-45 -46 -47 0
49 47 0
49 -48 0
-47 48 -49 0
-3 -49 -50 0
3 49 -50 0
-3 49 50 0
3 -49 50 0
51 7 0
51 -39 0
-7 39 -51 0
-52 50 0
-52 51 0
-50 -51 52 0
-53 22 0
-53 -22 0
54 -52 0
54 53 0
52 -53 -54 0
55 15 0
55 -22 0
-15 22 -55 0
-56 55 0
-56 7 0
-55 -7 56 0
-57 -54 0
-57 -56 0
54 56 57 0
-12 -30 -58 0
12 30 -58 0
-12 30 58 0
12 -30 58 0
59 58 0
59 -9 0
-58 9 -59 0
60 46 0
60 -59 0
-46 59 -60 0
61 -30 0
61 -7 0
30 7 -61 0
-62 -61 0
-62 9 0
61 -9 62 0
14 -62 -63 0
-14 62 -63 0
14 62 63 0
-14 -62 63 0
-64 60 0
-64 -63 0
-60 63 64 0
23 7 -65 0
-23 -7 -65 0
23 -7 65 0
-23 7 65 0
66 -9 0
66 65 0
9 -65 -66 0
67 -47 0
67 -66 0
47 66 -67 0
68 67 0
68 65 0
-67 -65 -68 0
-69 -64 0
-69 68 0
64 -68 69 0
70 29 0
70 49 0
-29 -49 -70 0
-71 -69 0
-71 70 0
69 -70 71 0
-16 -46 -72 0
16 46 -72 0
-16 46 72 0
16 -46 72 0
74 -72 0
74 -73 0
72 73 -74 0
-75 -71 0
-75 -74 0
71 74 75 0
-76 57 0
-76 75 0
-57 -75 76 0
77 44 0
77 -76 0
-44 76 -77 0
78 11 0
78 -28 0
-11 28 -78 0
78 -47 -79 0
-78 47 -79 0
78 47 79 0
-78 -47 79 0
-80 79 0
-80 -18 0
-79 18 80 0
-81 -49 0
-81 -51 0
49 51 81 0
-82 80 0
-82 81 0
-80 -81 82 0
-83 -77 0
-83 -82 0
77 82 83 0
-84 22 0
-84 -22 0
61 7 -85 0
-61 -7 -85 0
61 -7 85 0
-61 7 85 0
13 85 -86 0
-13 -85 -86 0
13 -85 86 0
-13 85 86 0
-87 84 0
-87 86 0
-84 -86 87 0
32 10 -88 0
-32 -10 -88 0
32 -10 88 0
-32 10 88 0
89 -65 0
89 58 0
65 -58 -89 0
-90 -88 0
-90 89 0
88 -89 90 0
-8 -7 -91 0
8 7 -91 0
-8 7 91 0
8 -7 91 0
92 -90 0
92 91 0
90 -91 -92 0
93 87 0
93 92 0
-87 -92 -93 0
94 -13 0
94 39 0
13 -39 -94 0
45 5 -95 0
-45 -5 -95 0
45 -5 95 0
-45 5 95 0
-59 -95 -96 0
59 95 -96 0
-59 95 96 0
59 -95 96 0
97 30 0
97 31 0
-30 -31 -97 0
98 -30 0
98 -97 0
30 97 -98 0
-99 96 0
-99 98 0
-96 -98 99 0
-100 -94 0
-100 -99 0
94 99 100 0
-101 13 0
-101 -45 0
-13 45 101 0
-102 -6 0
-102 30 0
6 -30 102 0
22 102 -103 0
-22 -102 -103 0
22 -102 103 0
-22 102 103 0
-104 101 0
-104 -103 0
-101 103 104 0
16 104 -105 0
-16 -104 -105 0
16 -104 105 0
-16 104 105 0
100 105 -106 0
-100 -105 -106 0
100 -105 106 0
-100 105 106 0
-107 93 0
-107 -106 0
-93 106 107 0
-83 -107 -108 0
83 107 -108 0
-83 107 108 0
83 -107 108 0
109 -102 0
109 -28 0
102 28 -109 0
110 18 0
110 -46 0
-18 46 -110 0
-111 109 0
-111 110 0
-109 -110 111 0
51 -6 -112 0
-51 6 -112 0
51 6 112 0
-51 -6 112 0
-113 112 0
-113 59 0
-112 -59 113 0
-114 111 0
-114 113 0
-111 -113 114 0
-115 61 0
-115 -103 0
-61 103 115 0
-116 -38 0
-116 -7 0
38 7 116 0
117 -116 0
117 -13 0
116 13 -117 0
-118 117 0
-118 -34 0
-117 34 118 0
119 15 0
119 3 0
-15 -3 -119 0
120 118 0
120 119 0
-118 -119 -120 0
-121 115 0
-121 -120 0
-115 120 121 0
45 51 -122 0
-45 -51 -122 0
45 -51 122 0
-45 51 122 0
-49 123 -124 0
49 -123 -124 0
-49 -123 124 0
49 123 124 0
122 124 -125 0
-122 -124 -125 0
122 -124 125 0
-122 124 125 0
-126 15 0
-126 13 0
-15 -13 126 0
127 28 0
127 4 0
-28 -4 -127 0
128 31 0
128 -3 0
-31 3 -128 0
-129 127 0
-129 -128 0
-127 128 129 0
130 -126 0
130 -129 0
126 129 -130 0
-131 39 0
-131 -15 0
-39 15 131 0
130 131 -132 0
-130 -131 -132 0
130 -131 132 0
-130 131 132 0
104 18 -133 0
-104 -18 -133 0
104 -18 133 0
-104 18 133 0
-134 -34 0
-134 -133 0
34 133 134 0
16 -62 -135 0
-16 62 -135 0
16 62 135 0
-16 -62 135 0
136 18 0
136 135 0
-18 -135 -136 0
134 -136 -137 0
-134 136 -137 0
134 136 137 0
-134 -136 137 0
132 -137 -138 0
-132 137 -138 0
132 137 138 0
-132 -137 138 0
-125 138 -139 0
125 -138 -139 0
-125 -138 139 0
125 138 139 0
140 -6 0
140 38 0
6 -38 -140 0
-141 47 0
-141 18 0
-47 -18 141 0
142 -140 0
142 141 0
140 -141 -142 0
-143 -139 0
-143 142 0
139 -142 143 0
-121 -143 -144 0
121 143 -144 0
-121 143 144 0
121 -143 144 0
114 144 -145 0
-114 -144 -145 0
114 -144 145 0
-114 144 145 0
-146 108 0
-146 145 0
-108 -145 146 0
9 -79 113 -42 -136 -97 0
-19 112 0
12 120 0
45 -76 0
-91 -120 -22 124 -55 0
50 80 0
46 69 88 -143 0
90 79 -104 0
115 48 122 -18 76 67 0
-39 74 -59 -94 -132 0
71 -106 0
-34 85 97 -69 0
138 -126 0
12 -42 -141 71 -3 -135 0
-144 91 19 -36 25 0
-59 -129 -123 -98 -37 0
34 28 -86 -141 136 0
79 -4 117 122 15 0
-5 -131 120 22 36 0
-118 46 65 -47 0
-94 -57 10 -93 0
142 -128 -77 -134 0
119 -23 -37 0
3 104 0
28 -141 -18 0
-110 -113 16 0
73 -45 91 0
-76 25 -68 34 -129 0
99 8 0
-44 -33 136 82 -58 0
10 -45 0
-89 30 -96 0
-100 39 0
51 31 -62 0
-94 90 -145 -114 0
-134 5 34 118 0
143 115 0
72 -136 0
74 -17 102 76 140 0
72 53 0
-110 93 0
46 79 -108 0
53 -123 0
97 -102 -146 -16 134 0
132 -137 23 -42 52 0
88 21 45 -54 0
-112 -121 -51 -37 -70 0
131 -48 0
-68 -134 98 -114 -83 76 0
57 -77 25 24 -18 133 0
-87 -37 118 138 48 -41 0
-103 -121 -74 0
38 133 -67 -103 0
-3 97 0
29 145 0
15 87 0
70 -63 -115 0
59 -104 87 0
6 -107 0
44 136 0
90 -82 -41 0
106 128 94 -121 0
104 69 111 0
146 0
